p cnf 82 143 
-1 -6 0
-1 -11 0
-6 -11 0
-2 -7 0
-2 -12 0
-7 -12 0
-3 -8 0
-3 -13 0
-8 -13 0
-4 -9 0
-4 -14 0
-9 -14 0
-5 -10 0
-5 -15 0
-10 -15 0
1 2 3 4 5 0
6 7 8 9 10 0
11 12 13 14 15 0
-1 -2 0
-1 -3 0
-1 -4 0
-1 -5 0
-2 -3 0
-2 -4 0
-2 -5 0
-3 -4 0
-3 -5 0
-4 -5 0
-6 -7 0
-6 -8 0
-6 -9 0
-6 -10 0
-7 -8 0
-7 -9 0
-7 -10 0
-8 -9 0
-8 -10 0
-9 -10 0
-11 -12 0
-11 -13 0
-11 -14 0
-11 -15 0
-12 -13 0
-12 -14 0
-12 -15 0
-13 -14 0
-13 -15 0
-14 -15 0
16 17 19 22 0
18 20 23 0
21 24 0
25 26 28 31 0
27 29 32 0
30 33 0
-19 -22 0
-16 -17 0
-16 -19 0
-16 -22 0
-17 -19 0
-17 -22 0
-20 -23 0
-18 -20 0
-18 -23 0
-21 -24 0
-28 -31 0
-25 -26 0
-25 -28 0
-25 -31 0
-26 -28 0
-26 -31 0
-29 -32 0
-27 -29 0
-27 -32 0
-30 -33 0
-16 -25 0
-17 -26 0
-19 -28 0
-22 -31 0
-18 -27 0
-20 -29 0
-23 -32 0
-21 -30 0
-24 -33 0
16 25 0
17 26 18 27 0
-18 -18 0
-27 -18 0
-18 -27 0
-27 -27 0
-22 -1 0
-31 -2 0
-31 -3 0
-31 -4 0
-22 -5 0
-28 -1 0
-28 -2 0
-28 -3 0
-28 -4 0
-19 -5 0
-31 -1 0
-22 -2 0
-22 -3 0
-22 -4 0
-31 -5 0
-28 -1 0
-28 -2 0
-28 -3 0
-28 -4 0
-28 -5 0
-28 -1 0
-19 -2 0
-28 -3 0
-28 -4 0
-28 -5 0
-31 -1 0
-31 -2 0
-31 -3 0
-22 -4 0
-22 -5 0
-22 -1 0
-22 -2 0
-31 -3 0
-31 -4 0
-31 -5 0
-22 -1 0
-22 -2 0
-31 -3 0
-31 -4 0
-22 -5 0
-28 -1 0
-28 -2 0
-28 -3 0
-28 -4 0
-28 -5 0
-22 -1 0
-22 -2 0
-22 -3 0
-31 -4 0
-22 -5 0
-16 34 -1 0
-25 34 -2 0
-25 34 -3 0
-25 34 -4 0
-16 34 -5 0
-25 35 -1 0
-25 35 -2 0
-25 35 -3 0
-25 35 -4 0
-16 35 -5 0
-25 36 -1 0
-16 36 -2 0
-16 36 -3 0
-16 36 -4 0
-25 36 -5 0
-25 37 -1 0
-25 37 -2 0
-25 37 -3 0
-25 37 -4 0
-25 37 -5 0
-25 38 -1 0
-16 38 -2 0
-25 38 -3 0
-25 38 -4 0
-25 38 -5 0
-25 39 -1 0
-25 39 -2 0
-25 39 -3 0
-16 39 -4 0
-16 39 -5 0
-16 40 -1 0
-16 40 -2 0
-25 40 -3 0
-25 40 -4 0
-25 40 -5 0
-16 41 -1 0
-16 41 -2 0
-25 41 -3 0
-25 41 -4 0
-16 41 -5 0
-25 42 -1 0
-25 42 -2 0
-25 42 -3 0
-25 42 -4 0
-25 42 -5 0
-16 43 -1 0
-16 43 -2 0
-16 43 -3 0
-25 43 -4 0
-16 43 -5 0
-34 37 -18 -6 0
-34 37 -27 -7 0
-34 37 -27 -8 0
-34 37 -27 -9 0
-34 37 -18 -10 0
-34 54 -20 -6 0
-34 54 -29 -7 0
-34 54 -29 -8 0
-34 54 -29 -9 0
-34 54 -20 -10 0
-34 64 -23 -6 0
-34 64 -32 -7 0
-34 64 -32 -8 0
-34 64 -32 -9 0
-34 64 -23 -10 0
-37 54 -21 -11 0
-37 54 -30 -12 0
-37 54 -30 -13 0
-37 54 -30 -14 0
-37 54 -21 -15 0
-37 64 -24 -11 0
-37 64 -33 -12 0
-37 64 -33 -13 0
-37 64 -33 -14 0
-37 64 -24 -15 0
-35 38 -27 -6 0
-35 38 -27 -7 0
-35 38 -27 -8 0
-35 38 -27 -9 0
-35 38 -18 -10 0
-35 55 -29 -6 0
-35 55 -29 -7 0
-35 55 -29 -8 0
-35 55 -29 -9 0
-35 55 -20 -10 0
-35 65 -32 -6 0
-35 65 -32 -7 0
-35 65 -32 -8 0
-35 65 -32 -9 0
-35 65 -23 -10 0
-38 55 -30 -11 0
-38 55 -30 -12 0
-38 55 -30 -13 0
-38 55 -30 -14 0
-38 55 -21 -15 0
-38 65 -33 -11 0
-38 65 -33 -12 0
-38 65 -33 -13 0
-38 65 -33 -14 0
-38 65 -24 -15 0
-36 39 -27 -6 0
-36 39 -18 -7 0
-36 39 -18 -8 0
-36 39 -18 -9 0
-36 39 -27 -10 0
-36 56 -29 -6 0
-36 56 -20 -7 0
-36 56 -20 -8 0
-36 56 -20 -9 0
-36 56 -29 -10 0
-36 66 -32 -6 0
-36 66 -23 -7 0
-36 66 -23 -8 0
-36 66 -23 -9 0
-36 66 -32 -10 0
-39 56 -30 -11 0
-39 56 -21 -12 0
-39 56 -21 -13 0
-39 56 -21 -14 0
-39 56 -30 -15 0
-39 66 -33 -11 0
-39 66 -24 -12 0
-39 66 -24 -13 0
-39 66 -24 -14 0
-39 66 -33 -15 0
-37 40 -27 -6 0
-37 40 -27 -7 0
-37 40 -27 -8 0
-37 40 -27 -9 0
-37 40 -27 -10 0
-37 57 -29 -6 0
-37 57 -29 -7 0
-37 57 -29 -8 0
-37 57 -29 -9 0
-37 57 -29 -10 0
-37 67 -32 -6 0
-37 67 -32 -7 0
-37 67 -32 -8 0
-37 67 -32 -9 0
-37 67 -32 -10 0
-40 57 -30 -11 0
-40 57 -30 -12 0
-40 57 -30 -13 0
-40 57 -30 -14 0
-40 57 -30 -15 0
-40 67 -33 -11 0
-40 67 -33 -12 0
-40 67 -33 -13 0
-40 67 -33 -14 0
-40 67 -33 -15 0
-38 41 -27 -6 0
-38 41 -18 -7 0
-38 41 -27 -8 0
-38 41 -27 -9 0
-38 41 -27 -10 0
-38 58 -29 -6 0
-38 58 -20 -7 0
-38 58 -29 -8 0
-38 58 -29 -9 0
-38 58 -29 -10 0
-38 68 -32 -6 0
-38 68 -23 -7 0
-38 68 -32 -8 0
-38 68 -32 -9 0
-38 68 -32 -10 0
-41 58 -30 -11 0
-41 58 -21 -12 0
-41 58 -30 -13 0
-41 58 -30 -14 0
-41 58 -30 -15 0
-41 68 -33 -11 0
-41 68 -24 -12 0
-41 68 -33 -13 0
-41 68 -33 -14 0
-41 68 -33 -15 0
-39 42 -27 -6 0
-39 42 -27 -7 0
-39 42 -27 -8 0
-39 42 -18 -9 0
-39 42 -18 -10 0
-39 59 -29 -6 0
-39 59 -29 -7 0
-39 59 -29 -8 0
-39 59 -20 -9 0
-39 59 -20 -10 0
-39 69 -32 -6 0
-39 69 -32 -7 0
-39 69 -32 -8 0
-39 69 -23 -9 0
-39 69 -23 -10 0
-42 59 -30 -11 0
-42 59 -30 -12 0
-42 59 -30 -13 0
-42 59 -21 -14 0
-42 59 -21 -15 0
-42 69 -33 -11 0
-42 69 -33 -12 0
-42 69 -33 -13 0
-42 69 -24 -14 0
-42 69 -24 -15 0
-40 43 -18 -6 0
-40 43 -18 -7 0
-40 43 -27 -8 0
-40 43 -27 -9 0
-40 43 -27 -10 0
-40 60 -20 -6 0
-40 60 -20 -7 0
-40 60 -29 -8 0
-40 60 -29 -9 0
-40 60 -29 -10 0
-40 70 -23 -6 0
-40 70 -23 -7 0
-40 70 -32 -8 0
-40 70 -32 -9 0
-40 70 -32 -10 0
-43 60 -21 -11 0
-43 60 -21 -12 0
-43 60 -30 -13 0
-43 60 -30 -14 0
-43 60 -30 -15 0
-43 70 -24 -11 0
-43 70 -24 -12 0
-43 70 -33 -13 0
-43 70 -33 -14 0
-43 70 -33 -15 0
-41 44 -18 -6 0
-41 44 -18 -7 0
-41 44 -27 -8 0
-41 44 -27 -9 0
-41 44 -18 -10 0
-41 61 -20 -6 0
-41 61 -20 -7 0
-41 61 -29 -8 0
-41 61 -29 -9 0
-41 61 -20 -10 0
-41 71 -23 -6 0
-41 71 -23 -7 0
-41 71 -32 -8 0
-41 71 -32 -9 0
-41 71 -23 -10 0
-44 61 -21 -11 0
-44 61 -21 -12 0
-44 61 -30 -13 0
-44 61 -30 -14 0
-44 61 -21 -15 0
-44 71 -24 -11 0
-44 71 -24 -12 0
-44 71 -33 -13 0
-44 71 -33 -14 0
-44 71 -24 -15 0
-42 45 -27 -6 0
-42 45 -27 -7 0
-42 45 -27 -8 0
-42 45 -27 -9 0
-42 45 -27 -10 0
-42 62 -29 -6 0
-42 62 -29 -7 0
-42 62 -29 -8 0
-42 62 -29 -9 0
-42 62 -29 -10 0
-42 72 -32 -6 0
-42 72 -32 -7 0
-42 72 -32 -8 0
-42 72 -32 -9 0
-42 72 -32 -10 0
-45 62 -30 -11 0
-45 62 -30 -12 0
-45 62 -30 -13 0
-45 62 -30 -14 0
-45 62 -30 -15 0
-45 72 -33 -11 0
-45 72 -33 -12 0
-45 72 -33 -13 0
-45 72 -33 -14 0
-45 72 -33 -15 0
-43 46 -18 -6 0
-43 46 -18 -7 0
-43 46 -18 -8 0
-43 46 -27 -9 0
-43 46 -18 -10 0
-43 63 -20 -6 0
-43 63 -20 -7 0
-43 63 -20 -8 0
-43 63 -29 -9 0
-43 63 -20 -10 0
-43 73 -23 -6 0
-43 73 -23 -7 0
-43 73 -23 -8 0
-43 73 -32 -9 0
-43 73 -23 -10 0
-46 63 -21 -11 0
-46 63 -21 -12 0
-46 63 -21 -13 0
-46 63 -30 -14 0
-46 63 -21 -15 0
-46 73 -24 -11 0
-46 73 -24 -12 0
-46 73 -24 -13 0
-46 73 -33 -14 0
-46 73 -24 -15 0
-74 16 25 0
74 -16 0
74 -25 0
-75 17 26 0
75 -17 0
75 -26 0
-77 19 28 0
77 -19 0
77 -28 0
-80 22 31 0
80 -22 0
80 -31 0
-75 17 26 0
75 -17 0
75 -26 0
-76 18 27 0
76 -18 0
76 -27 0
-78 20 29 0
78 -20 0
78 -29 0
-81 23 32 0
81 -23 0
81 -32 0
-75 17 26 0
75 -17 0
75 -26 0
-76 18 27 0
76 -18 0
76 -27 0
-79 21 30 0
79 -21 0
79 -30 0
-82 24 33 0
82 -24 0
82 -33 0
-34 -76 -37 -78 -54 0
-34 -76 -37 -81 -64 0
-34 -78 -54 -76 -37 0
-34 -78 -54 -81 -64 0
-34 -81 -64 -76 -37 0
-34 -81 -64 -78 -54 0
-37 -79 -54 -82 -64 0
-37 -82 -64 -79 -54 0
-35 -76 -38 -78 -55 0
-35 -76 -38 -81 -65 0
-35 -78 -55 -76 -38 0
-35 -78 -55 -81 -65 0
-35 -81 -65 -76 -38 0
-35 -81 -65 -78 -55 0
-38 -79 -55 -82 -65 0
-38 -82 -65 -79 -55 0
-36 -76 -39 -78 -56 0
-36 -76 -39 -81 -66 0
-36 -78 -56 -76 -39 0
-36 -78 -56 -81 -66 0
-36 -81 -66 -76 -39 0
-36 -81 -66 -78 -56 0
-39 -79 -56 -82 -66 0
-39 -82 -66 -79 -56 0
-37 -76 -40 -78 -57 0
-37 -76 -40 -81 -67 0
-37 -78 -57 -76 -40 0
-37 -78 -57 -81 -67 0
-37 -81 -67 -76 -40 0
-37 -81 -67 -78 -57 0
-40 -79 -57 -82 -67 0
-40 -82 -67 -79 -57 0
-38 -76 -41 -78 -58 0
-38 -76 -41 -81 -68 0
-38 -78 -58 -76 -41 0
-38 -78 -58 -81 -68 0
-38 -81 -68 -76 -41 0
-38 -81 -68 -78 -58 0
-41 -79 -58 -82 -68 0
-41 -82 -68 -79 -58 0
-39 -76 -42 -78 -59 0
-39 -76 -42 -81 -69 0
-39 -78 -59 -76 -42 0
-39 -78 -59 -81 -69 0
-39 -81 -69 -76 -42 0
-39 -81 -69 -78 -59 0
-42 -79 -59 -82 -69 0
-42 -82 -69 -79 -59 0
-40 -76 -43 -78 -60 0
-40 -76 -43 -81 -70 0
-40 -78 -60 -76 -43 0
-40 -78 -60 -81 -70 0
-40 -81 -70 -76 -43 0
-40 -81 -70 -78 -60 0
-43 -79 -60 -82 -70 0
-43 -82 -70 -79 -60 0
-41 -76 -44 -78 -61 0
-41 -76 -44 -81 -71 0
-41 -78 -61 -76 -44 0
-41 -78 -61 -81 -71 0
-41 -81 -71 -76 -44 0
-41 -81 -71 -78 -61 0
-44 -79 -61 -82 -71 0
-44 -82 -71 -79 -61 0
-42 -76 -45 -78 -62 0
-42 -76 -45 -81 -72 0
-42 -78 -62 -76 -45 0
-42 -78 -62 -81 -72 0
-42 -81 -72 -76 -45 0
-42 -81 -72 -78 -62 0
-45 -79 -62 -82 -72 0
-45 -82 -72 -79 -62 0
-43 -76 -46 -78 -63 0
-43 -76 -46 -81 -73 0
-43 -78 -63 -76 -46 0
-43 -78 -63 -81 -73 0
-43 -81 -73 -76 -46 0
-43 -81 -73 -78 -63 0
-46 -79 -63 -82 -73 0
-46 -82 -73 -79 -63 0
-37 34 -76 0
-38 35 -76 0
-39 36 -76 0
-40 37 -76 0
-41 38 -76 0
-42 39 -76 0
-43 40 -76 0
-44 41 -76 0
-45 42 -76 0
-46 43 -76 0
54 0
65 0
56 0
67 0
68 0
59 0
60 0
61 0
72 0
63 0
-64 0
-55 0
-66 0
-57 0
-58 0
-69 0
-70 0
-71 0
-62 0
-73 0
